Please solve the following SAT Problem encoded in DIMACS format, only return a single solution assignment without explanations, if there is any: 
p cnf 10 40
-7 -1 5 0
-6 -9 10 0
-10 -6 3 0
-1 2 -8 0
-7 -2 5 0
-2 -10 -8 0
-9 -1 -7 0
5 4 -6 0
-9 5 2 0
-4 -8 -7 0
-10 3 -9 0
-1 5 -7 0
-6 -8 -9 0
-7 5 -3 0
-1 -6 -7 0
-3 5 -8 0
5 -9 4 0
-1 -8 3 0
5 3 -9 0
-2 -6 -7 0
-8 3 4 0
-3 -2 5 0
-6 -10 -9 0
8 4 3 0
-7 3 5 0
-4 -10 -9 0
-8 -10 -7 0
-2 -6 -9 0
6 5 -9 0
-1 5 -6 0
-1 -6 -7 0
-6 4 -10 0
3 -10 -7 0
-6 -2 4 0
-10 -1 5 0
2 -6 -8 0
-10 -2 4 0
3 8 -10 0
-6 2 -7 0
-2 -4 5 0

